103 6
25 22 22 24 22 22
1 0 0 0 0 0 0 3 2 3 4
6 6 9 7 9 10 6 4 5 6 7 8
1 8 4 2 2 10 9 4 103 6 7 8
7 4 3 4 6 8 1 4 5 6 7 8
8 6 3 5 1 6 4 4 9 10 11 12
7 6 9 2 2 7 2 4 9 10 11 12
5 8 8 10 4 10 3 3 9 11 12
4 10 1 5 3 1 3 4 9 10 11 12
6 1 10 3 6 2 2 4 13 14 15 16
7 4 8 2 1 1 8 4 13 14 15 16
10 3 9 6 9 4 3 4 13 14 15 16
9 9 2 10 10 8 2 3 13 15 16
5 3 9 6 3 3 5 3 17 18 20
1 8 10 8 8 2 2 3 17 19 20
3 9 2 2 9 8 1 3 17 18 20
2 4 7 8 6 4 4 4 17 18 19 20
8 8 7 2 2 7 6 3 21 22 23
7 10 1 8 10 7 10 4 21 22 23 24
8 6 1 8 6 2 8 3 21 22 23
3 8 5 8 8 1 4 3 22 23 24
4 8 1 6 1 6 1 4 25 26 27 28
7 6 9 6 3 2 3 3 25 26 27
4 5 3 7 5 8 6 3 25 26 27
7 5 7 1 10 9 2 4 25 26 27 28
5 7 3 7 7 6 3 3 29 30 32
6 4 2 5 4 8 7 1 31
8 3 6 10 1 3 8 3 29 30 31
4 7 10 1 7 3 6 3 29 30 32
5 10 6 4 8 5 10 3 33 34 36
1 9 8 10 2 9 10 4 33 34 35 36
7 3 4 7 8 8 2 4 33 34 35 36
5 7 4 2 3 6 2 2 34 36
5 7 5 9 7 7 10 4 37 38 39 40
9 5 3 1 6 1 2 4 37 38 39 40
5 10 3 1 10 1 2 3 37 38 40
5 6 9 1 8 7 6 3 37 38 40
6 5 6 1 5 3 9 4 41 42 43 44
4 10 3 10 6 1 5 2 41 43
10 6 10 1 4 3 8 4 41 42 43 44
8 4 8 1 2 9 1 3 41 42 43
2 1 10 4 10 4 7 2 46 48
2 5 7 10 2 1 3 4 45 46 47 48
10 2 8 5 10 3 8 3 46 47 48
6 9 3 3 6 3 4 2 46 48
10 9 3 7 1 3 6 3 49 50 52
4 2 3 3 7 10 5 4 49 50 51 52
3 10 3 2 8 7 3 3 49 50 51
10 8 5 7 5 2 9 2 49 50
6 2 9 3 6 7 2 4 53 54 55 56
7 5 3 6 9 4 5 3 53 54 56
7 5 10 7 5 6 3 4 53 54 55 56
10 5 4 7 4 6 5 3 53 54 55
2 3 3 10 10 7 8 2 59 60
4 10 3 5 3 3 8 3 57 58 60
9 8 10 4 2 1 2 3 57 58 60
9 10 9 9 10 8 3 3 58 59 60
10 8 6 9 5 8 7 4 61 62 63 64
4 2 3 8 10 4 10 3 61 62 63
6 6 7 2 2 3 9 4 61 62 63 64
8 4 10 9 10 8 8 3 61 62 63
7 7 4 7 1 9 6 2 65 67
4 9 2 10 1 9 1 3 65 66 68
10 7 4 2 10 5 1 2 65 68
7 10 8 8 6 6 3 3 66 67 68
5 8 8 10 1 8 9 4 69 70 71 72
7 9 4 6 8 4 7 3 69 71 72
6 1 8 8 2 6 10 3 69 71 72
6 2 6 1 6 8 7 3 69 71 72
5 8 10 2 4 1 8 4 73 74 75 76
2 9 2 6 5 1 7 4 73 74 75 76
2 10 2 2 4 5 9 4 73 74 75 76
7 7 1 3 3 3 3 4 73 74 75 76
5 5 3 7 9 10 2 4 77 78 79 80
5 6 7 4 10 6 3 3 77 79 80
7 6 3 2 1 4 4 4 77 78 79 80
4 9 1 8 10 1 7 4 77 78 79 80
10 1 5 3 1 7 4 4 81 82 83 84
6 7 1 4 8 8 7 1 82
6 5 8 3 6 4 10 2 81 84
9 8 9 4 10 8 1 4 81 82 83 84
9 4 6 6 5 5 4 4 85 86 87 88
8 8 9 7 8 10 7 4 85 86 87 88
2 8 2 5 9 5 10 4 85 86 87 88
8 9 6 2 7 9 3 4 85 86 87 88
4 9 7 1 6 1 3 4 89 90 91 92
8 4 8 7 10 10 7 3 90 91 92
1 5 1 3 6 5 9 3 89 90 91
2 1 4 1 8 3 9 3 89 90 92
9 2 1 7 8 6 10 3 93 94 95
3 8 7 5 4 6 1 3 94 95 96
6 4 5 7 9 10 3 3 94 95 96
10 8 3 8 5 9 9 4 93 94 95 96
4 2 6 10 5 5 7 3 98 99 100
8 2 1 3 1 3 2 2 97 99
6 8 6 4 4 8 4 2 98 99
10 10 2 4 7 9 5 3 98 99 100
5 1 7 2 7 5 9 2 101 102
5 4 7 6 5 3 9 1 101
6 1 3 3 10 5 7 1 102
3 8 5 10 10 6 6 1 101
10 8 7 10 2 3 6 1 103
10 3 8 9 5 6 9 1 103
0 0 0 0 0 0 0 0
